
%FILE DATA:	Soccer Computational Problem for MiniZinc Models	%
%AUTHOR:	Jack Wall	%
%CONTACT:  	116397063@umail.ucc.ie			%
%LAST UPDATE:	03/03/2020, 16:09:05						%
%DESCRIPTION: 	45 games played with 27 games left				%


n=9; %number of teams

%Games to play
games=[|2,4|5,1|8,5|1,5|9,6|1,7|7,2|7,3|6,5|3,2|8,6|3,6|6,3|4,9|1,6|5,3|9,8|3,1|9,3|6,1|1,4|9,2|2,3|2,9|9,1|5,8|3,5|];

%Initial points
iPoints=[9,14,14,25,11,7,19,10,13];

%POSITION CONSTRAINTS
% [|teamID, operator, position|...]
% operators index:
%  1 for =  operator
%  2 for >  operator
%  3 for >= operator
%  4 for <  operator
%  5 for <= operator
positionConstraints=[|3,3,1|4,1,2|2,4,4|1,4,5|5,5,5|];